c Reduced graph for GEOM50_2 generated by Cyril Grelier
p edge 38 93
e 1 2
e 1 3
e 1 13
e 1 22
e 1 24
e 1 28
e 2 11
e 2 13
e 2 22
e 2 24
e 2 28
e 3 22
e 3 24
e 3 30
e 3 31
e 4 7
e 4 8
e 4 16
e 4 29
e 4 35
e 5 15
e 5 38
e 6 13
e 6 26
e 7 29
e 8 16
e 8 29
e 8 32
e 8 35
e 8 38
e 9 12
e 9 17
e 9 33
e 9 36
e 9 37
e 10 19
e 10 20
e 11 14
e 11 22
e 11 23
e 11 24
e 11 28
e 12 17
e 12 33
e 12 36
e 12 37
e 13 22
e 14 28
e 14 33
e 15 18
e 15 21
e 15 25
e 15 32
e 15 38
e 16 25
e 16 29
e 16 32
e 16 35
e 17 33
e 17 36
e 17 37
e 18 21
e 18 25
e 18 32
e 18 38
e 19 20
e 19 26
e 20 26
e 21 26
e 22 23
e 22 24
e 22 28
e 23 24
e 23 27
e 23 28
e 23 34
e 24 27
e 24 28
e 24 34
e 25 32
e 25 35
e 27 30
e 27 34
e 29 32
e 29 35
e 30 31
e 30 34
e 31 34
e 32 35
e 32 38
e 33 36
e 33 37
e 36 37
